c graph colorability of graph:
c .
c
c Generated with `cnfgen`
c (C) 2012-2019 Massimo Lauria <massimo.lauria@uniroma1.it>
c https://massimolauria.net/cnfgen
c
c COMMAND LINE: cnfgen --seed 1 -o ./kcolor/kcolor.grid6.s1.k4.cnf kcolor --grid 6 6 --savegraph ./kcolor/kcolor.grid6.s1.graph --graphformat dot 4
c
p cnf 144 492
1 2 3 4 0
-1 -2 0
-1 -3 0
-1 -4 0
-2 -3 0
-2 -4 0
-3 -4 0
5 6 7 8 0
-5 -6 0
-5 -7 0
-5 -8 0
-6 -7 0
-6 -8 0
-7 -8 0
9 10 11 12 0
-9 -10 0
-9 -11 0
-9 -12 0
-10 -11 0
-10 -12 0
-11 -12 0
13 14 15 16 0
-13 -14 0
-13 -15 0
-13 -16 0
-14 -15 0
-14 -16 0
-15 -16 0
17 18 19 20 0
-17 -18 0
-17 -19 0
-17 -20 0
-18 -19 0
-18 -20 0
-19 -20 0
21 22 23 24 0
-21 -22 0
-21 -23 0
-21 -24 0
-22 -23 0
-22 -24 0
-23 -24 0
25 26 27 28 0
-25 -26 0
-25 -27 0
-25 -28 0
-26 -27 0
-26 -28 0
-27 -28 0
29 30 31 32 0
-29 -30 0
-29 -31 0
-29 -32 0
-30 -31 0
-30 -32 0
-31 -32 0
33 34 35 36 0
-33 -34 0
-33 -35 0
-33 -36 0
-34 -35 0
-34 -36 0
-35 -36 0
37 38 39 40 0
-37 -38 0
-37 -39 0
-37 -40 0
-38 -39 0
-38 -40 0
-39 -40 0
41 42 43 44 0
-41 -42 0
-41 -43 0
-41 -44 0
-42 -43 0
-42 -44 0
-43 -44 0
45 46 47 48 0
-45 -46 0
-45 -47 0
-45 -48 0
-46 -47 0
-46 -48 0
-47 -48 0
49 50 51 52 0
-49 -50 0
-49 -51 0
-49 -52 0
-50 -51 0
-50 -52 0
-51 -52 0
53 54 55 56 0
-53 -54 0
-53 -55 0
-53 -56 0
-54 -55 0
-54 -56 0
-55 -56 0
57 58 59 60 0
-57 -58 0
-57 -59 0
-57 -60 0
-58 -59 0
-58 -60 0
-59 -60 0
61 62 63 64 0
-61 -62 0
-61 -63 0
-61 -64 0
-62 -63 0
-62 -64 0
-63 -64 0
65 66 67 68 0
-65 -66 0
-65 -67 0
-65 -68 0
-66 -67 0
-66 -68 0
-67 -68 0
69 70 71 72 0
-69 -70 0
-69 -71 0
-69 -72 0
-70 -71 0
-70 -72 0
-71 -72 0
73 74 75 76 0
-73 -74 0
-73 -75 0
-73 -76 0
-74 -75 0
-74 -76 0
-75 -76 0
77 78 79 80 0
-77 -78 0
-77 -79 0
-77 -80 0
-78 -79 0
-78 -80 0
-79 -80 0
81 82 83 84 0
-81 -82 0
-81 -83 0
-81 -84 0
-82 -83 0
-82 -84 0
-83 -84 0
85 86 87 88 0
-85 -86 0
-85 -87 0
-85 -88 0
-86 -87 0
-86 -88 0
-87 -88 0
89 90 91 92 0
-89 -90 0
-89 -91 0
-89 -92 0
-90 -91 0
-90 -92 0
-91 -92 0
93 94 95 96 0
-93 -94 0
-93 -95 0
-93 -96 0
-94 -95 0
-94 -96 0
-95 -96 0
97 98 99 100 0
-97 -98 0
-97 -99 0
-97 -100 0
-98 -99 0
-98 -100 0
-99 -100 0
101 102 103 104 0
-101 -102 0
-101 -103 0
-101 -104 0
-102 -103 0
-102 -104 0
-103 -104 0
105 106 107 108 0
-105 -106 0
-105 -107 0
-105 -108 0
-106 -107 0
-106 -108 0
-107 -108 0
109 110 111 112 0
-109 -110 0
-109 -111 0
-109 -112 0
-110 -111 0
-110 -112 0
-111 -112 0
113 114 115 116 0
-113 -114 0
-113 -115 0
-113 -116 0
-114 -115 0
-114 -116 0
-115 -116 0
117 118 119 120 0
-117 -118 0
-117 -119 0
-117 -120 0
-118 -119 0
-118 -120 0
-119 -120 0
121 122 123 124 0
-121 -122 0
-121 -123 0
-121 -124 0
-122 -123 0
-122 -124 0
-123 -124 0
125 126 127 128 0
-125 -126 0
-125 -127 0
-125 -128 0
-126 -127 0
-126 -128 0
-127 -128 0
129 130 131 132 0
-129 -130 0
-129 -131 0
-129 -132 0
-130 -131 0
-130 -132 0
-131 -132 0
133 134 135 136 0
-133 -134 0
-133 -135 0
-133 -136 0
-134 -135 0
-134 -136 0
-135 -136 0
137 138 139 140 0
-137 -138 0
-137 -139 0
-137 -140 0
-138 -139 0
-138 -140 0
-139 -140 0
141 142 143 144 0
-141 -142 0
-141 -143 0
-141 -144 0
-142 -143 0
-142 -144 0
-143 -144 0
-1 -5 0
-2 -6 0
-3 -7 0
-4 -8 0
-1 -25 0
-2 -26 0
-3 -27 0
-4 -28 0
-5 -9 0
-6 -10 0
-7 -11 0
-8 -12 0
-5 -29 0
-6 -30 0
-7 -31 0
-8 -32 0
-9 -13 0
-10 -14 0
-11 -15 0
-12 -16 0
-9 -33 0
-10 -34 0
-11 -35 0
-12 -36 0
-13 -17 0
-14 -18 0
-15 -19 0
-16 -20 0
-13 -37 0
-14 -38 0
-15 -39 0
-16 -40 0
-17 -21 0
-18 -22 0
-19 -23 0
-20 -24 0
-17 -41 0
-18 -42 0
-19 -43 0
-20 -44 0
-21 -45 0
-22 -46 0
-23 -47 0
-24 -48 0
-25 -29 0
-26 -30 0
-27 -31 0
-28 -32 0
-25 -49 0
-26 -50 0
-27 -51 0
-28 -52 0
-29 -33 0
-30 -34 0
-31 -35 0
-32 -36 0
-29 -53 0
-30 -54 0
-31 -55 0
-32 -56 0
-33 -37 0
-34 -38 0
-35 -39 0
-36 -40 0
-33 -57 0
-34 -58 0
-35 -59 0
-36 -60 0
-37 -41 0
-38 -42 0
-39 -43 0
-40 -44 0
-37 -61 0
-38 -62 0
-39 -63 0
-40 -64 0
-41 -45 0
-42 -46 0
-43 -47 0
-44 -48 0
-41 -65 0
-42 -66 0
-43 -67 0
-44 -68 0
-45 -69 0
-46 -70 0
-47 -71 0
-48 -72 0
-49 -53 0
-50 -54 0
-51 -55 0
-52 -56 0
-49 -73 0
-50 -74 0
-51 -75 0
-52 -76 0
-53 -57 0
-54 -58 0
-55 -59 0
-56 -60 0
-53 -77 0
-54 -78 0
-55 -79 0
-56 -80 0
-57 -61 0
-58 -62 0
-59 -63 0
-60 -64 0
-57 -81 0
-58 -82 0
-59 -83 0
-60 -84 0
-61 -65 0
-62 -66 0
-63 -67 0
-64 -68 0
-61 -85 0
-62 -86 0
-63 -87 0
-64 -88 0
-65 -69 0
-66 -70 0
-67 -71 0
-68 -72 0
-65 -89 0
-66 -90 0
-67 -91 0
-68 -92 0
-69 -93 0
-70 -94 0
-71 -95 0
-72 -96 0
-73 -77 0
-74 -78 0
-75 -79 0
-76 -80 0
-73 -97 0
-74 -98 0
-75 -99 0
-76 -100 0
-77 -81 0
-78 -82 0
-79 -83 0
-80 -84 0
-77 -101 0
-78 -102 0
-79 -103 0
-80 -104 0
-81 -85 0
-82 -86 0
-83 -87 0
-84 -88 0
-81 -105 0
-82 -106 0
-83 -107 0
-84 -108 0
-85 -89 0
-86 -90 0
-87 -91 0
-88 -92 0
-85 -109 0
-86 -110 0
-87 -111 0
-88 -112 0
-89 -93 0
-90 -94 0
-91 -95 0
-92 -96 0
-89 -113 0
-90 -114 0
-91 -115 0
-92 -116 0
-93 -117 0
-94 -118 0
-95 -119 0
-96 -120 0
-97 -101 0
-98 -102 0
-99 -103 0
-100 -104 0
-97 -121 0
-98 -122 0
-99 -123 0
-100 -124 0
-101 -105 0
-102 -106 0
-103 -107 0
-104 -108 0
-101 -125 0
-102 -126 0
-103 -127 0
-104 -128 0
-105 -109 0
-106 -110 0
-107 -111 0
-108 -112 0
-105 -129 0
-106 -130 0
-107 -131 0
-108 -132 0
-109 -113 0
-110 -114 0
-111 -115 0
-112 -116 0
-109 -133 0
-110 -134 0
-111 -135 0
-112 -136 0
-113 -117 0
-114 -118 0
-115 -119 0
-116 -120 0
-113 -137 0
-114 -138 0
-115 -139 0
-116 -140 0
-117 -141 0
-118 -142 0
-119 -143 0
-120 -144 0
-121 -125 0
-122 -126 0
-123 -127 0
-124 -128 0
-125 -129 0
-126 -130 0
-127 -131 0
-128 -132 0
-129 -133 0
-130 -134 0
-131 -135 0
-132 -136 0
-133 -137 0
-134 -138 0
-135 -139 0
-136 -140 0
-137 -141 0
-138 -142 0
-139 -143 0
-140 -144 0
